min: c;

c = 4.65080486840603 * u3_t10_h0 + 3.20274459786682 * u3_t10_h1 + 3.88615252619014 * u3_t4_h2 + 3.88615252619014 * u3_t10_h2 + 3.51772597357577 * u3_t4_h3 + 3.51772597357577 * u3_t10_h3 + 3.31763025094723 * u3_t4_h4 + 3.31763025094723 * u3_t10_h4 + 3.13703638963475 * u3_t4_h5 + 3.13703638963475 * u3_t10_h5 + 3.60075061113977 * u3_t4_h6 + 3.60075061113977 * u3_t10_h6 + 3.99793918405622 * u3_t4_h7 + 3.99793918405622 * u3_t9_h7 + 3.99793918405622 * u3_t10_h7 + 5.69206469130384 * u3_t4_h8 + 5.69206469130384 * u3_t9_h8 + 4.4760088577552 * u3_t4_h9 + 4.4760088577552 * u3_t9_h9 + 4.99188957491298 * u3_t4_h10 + 4.99188957491298 * u3_t6_h10 + 4.99188957491298 * u3_t9_h10 + 3.93461903969397 * u3_t3_h11 + 3.93461903969397 * u3_t4_h11 + 3.93461903969397 * u3_t6_h11 + 3.93461903969397 * u3_t9_h11 + 6.13121850521712 * u3_t3_h12 + 6.13121850521712 * u3_t4_h12 + 6.13121850521712 * u3_t6_h12 + 6.13121850521712 * u3_t9_h12 + 4.37979848610741 * u3_t3_h13 + 4.37979848610741 * u3_t4_h13 + 4.37979848610741 * u3_t5_h13 + 4.37979848610741 * u3_t6_h13 + 4.37979848610741 * u3_t9_h13 + 5.90421083245576 * u3_t3_h14 + 5.90421083245576 * u3_t4_h14 + 5.90421083245576 * u3_t5_h14 + 5.90421083245576 * u3_t6_h14 + 5.90421083245576 * u3_t9_h14 + 5.88326405412993 * u3_t2_h15 + 5.88326405412993 * u3_t3_h15 + 5.88326405412993 * u3_t4_h15 + 5.88326405412993 * u3_t5_h15 + 5.88326405412993 * u3_t6_h15 + 5.88326405412993 * u3_t9_h15 + 5.9350735625453 * u3_t2_h16 + 5.9350735625453 * u3_t4_h16 + 5.9350735625453 * u3_t5_h16 + 5.9350735625453 * u3_t6_h16 + 5.9350735625453 * u3_t9_h16 + 6.0142838464235 * u3_t2_h17 + 6.0142838464235 * u3_t4_h17 + 6.0142838464235 * u3_t6_h17 + 6.0142838464235 * u3_t9_h17 + 6.13690149709776 * u3_t2_h18 + 6.13690149709776 * u3_t6_h18 + 6.13690149709776 * u3_t9_h18 + 5.40601004692321 * u3_t2_h19 + 5.40601004692321 * u3_t9_h19 + 5.24022862694901 * u3_t1_h20 + 5.24022862694901 * u3_t2_h20 + 5.24022862694901 * u3_t8_h20 + 5.24022862694901 * u3_t9_h20 + 5.71375423406457 * u3_t1_h21 + 5.71375423406457 * u3_t2_h21 + 5.71375423406457 * u3_t7_h21 + 5.71375423406457 * u3_t8_h21 + 5.71375423406457 * u3_t9_h21 + 5.64976474683623 * u3_t1_h22 + 5.64976474683623 * u3_t7_h22 + 5.64976474683623 * u3_t8_h22 + 5.18415407772079 * u3_t1_h23 + 5.18415407772079 * u3_t7_h23 + 5.18415407772079 * u3_t8_h23;
0 <= u3_t1_h20 <= 1;
0 <= u3_t1_h21 <= 1;
0 <= u3_t1_h22 <= 1;
0 <= u3_t1_h23 <= 1;
u3_t1_h20 + u3_t1_h21 + u3_t1_h22 + u3_t1_h23 = 2;
0 <= u3_t2_h15 <= 1;
0 <= u3_t2_h16 <= 1;
0 <= u3_t2_h17 <= 1;
0 <= u3_t2_h18 <= 1;
0 <= u3_t2_h19 <= 1;
0 <= u3_t2_h20 <= 1;
0 <= u3_t2_h21 <= 1;
u3_t2_h15 + u3_t2_h16 + u3_t2_h17 + u3_t2_h18 + u3_t2_h19 + u3_t2_h20 + u3_t2_h21 = 3;
0 <= u3_t3_h11 <= 1;
0 <= u3_t3_h12 <= 1;
0 <= u3_t3_h13 <= 1;
0 <= u3_t3_h14 <= 1;
0 <= u3_t3_h15 <= 1;
u3_t3_h11 + u3_t3_h12 + u3_t3_h13 + u3_t3_h14 + u3_t3_h15 = 2;
0 <= u3_t4_h2 <= 1;
0 <= u3_t4_h3 <= 1;
0 <= u3_t4_h4 <= 1;
0 <= u3_t4_h5 <= 1;
0 <= u3_t4_h6 <= 1;
0 <= u3_t4_h7 <= 1;
0 <= u3_t4_h8 <= 1;
0 <= u3_t4_h9 <= 1;
0 <= u3_t4_h10 <= 1;
0 <= u3_t4_h11 <= 1;
0 <= u3_t4_h12 <= 1;
0 <= u3_t4_h13 <= 1;
0 <= u3_t4_h14 <= 1;
0 <= u3_t4_h15 <= 1;
0 <= u3_t4_h16 <= 1;
0 <= u3_t4_h17 <= 1;
u3_t4_h2 + u3_t4_h3 + u3_t4_h4 + u3_t4_h5 + u3_t4_h6 + u3_t4_h7 + u3_t4_h8 + u3_t4_h9 + u3_t4_h10 + u3_t4_h11 + u3_t4_h12 + u3_t4_h13 + u3_t4_h14 + u3_t4_h15 + u3_t4_h16 + u3_t4_h17 = 3;
0 <= u3_t5_h13 <= 1;
0 <= u3_t5_h14 <= 1;
0 <= u3_t5_h15 <= 1;
0 <= u3_t5_h16 <= 1;
u3_t5_h13 + u3_t5_h14 + u3_t5_h15 + u3_t5_h16 = 2;
0 <= u3_t6_h10 <= 1;
0 <= u3_t6_h11 <= 1;
0 <= u3_t6_h12 <= 1;
0 <= u3_t6_h13 <= 1;
0 <= u3_t6_h14 <= 1;
0 <= u3_t6_h15 <= 1;
0 <= u3_t6_h16 <= 1;
0 <= u3_t6_h17 <= 1;
0 <= u3_t6_h18 <= 1;
u3_t6_h10 + u3_t6_h11 + u3_t6_h12 + u3_t6_h13 + u3_t6_h14 + u3_t6_h15 + u3_t6_h16 + u3_t6_h17 + u3_t6_h18 = 2;
0 <= u3_t7_h21 <= 1;
0 <= u3_t7_h22 <= 1;
0 <= u3_t7_h23 <= 1;
u3_t7_h21 + u3_t7_h22 + u3_t7_h23 = 2;
0 <= u3_t8_h20 <= 1;
0 <= u3_t8_h21 <= 1;
0 <= u3_t8_h22 <= 1;
0 <= u3_t8_h23 <= 1;
u3_t8_h20 + u3_t8_h21 + u3_t8_h22 + u3_t8_h23 = 1;
0 <= u3_t9_h7 <= 1;
0 <= u3_t9_h8 <= 1;
0 <= u3_t9_h9 <= 1;
0 <= u3_t9_h10 <= 1;
0 <= u3_t9_h11 <= 1;
0 <= u3_t9_h12 <= 1;
0 <= u3_t9_h13 <= 1;
0 <= u3_t9_h14 <= 1;
0 <= u3_t9_h15 <= 1;
0 <= u3_t9_h16 <= 1;
0 <= u3_t9_h17 <= 1;
0 <= u3_t9_h18 <= 1;
0 <= u3_t9_h19 <= 1;
0 <= u3_t9_h20 <= 1;
0 <= u3_t9_h21 <= 1;
u3_t9_h7 + u3_t9_h8 + u3_t9_h9 + u3_t9_h10 + u3_t9_h11 + u3_t9_h12 + u3_t9_h13 + u3_t9_h14 + u3_t9_h15 + u3_t9_h16 + u3_t9_h17 + u3_t9_h18 + u3_t9_h19 + u3_t9_h20 + u3_t9_h21 = 2;
0 <= u3_t10_h0 <= 1;
0 <= u3_t10_h1 <= 1;
0 <= u3_t10_h2 <= 1;
0 <= u3_t10_h3 <= 1;
0 <= u3_t10_h4 <= 1;
0 <= u3_t10_h5 <= 1;
0 <= u3_t10_h6 <= 1;
0 <= u3_t10_h7 <= 1;
u3_t10_h0 + u3_t10_h1 + u3_t10_h2 + u3_t10_h3 + u3_t10_h4 + u3_t10_h5 + u3_t10_h6 + u3_t10_h7 = 3;
